param B:=
1	-9170
2	17099
3	-2271
4	-4336
5	-43;
param D:
	1	2	3	4	5:=
1	10197	-12454	-1013	1948	329
2	-12454	20909	-1733	-4914	-186
3	-1013	-1733	1755	1089	-174
4	1948	-4914	1089	1515	-22
5	329	-186	-174	-22	27;
